(set-logic HORN)
(set-info :source |
  Benchmark: test_safe_2019/mochi/enc-zip_unzip.ml
  Generated by MoCHi
|)
(set-info :status unknown)
(declare-fun |fail_21[23:0]| ( Int) Bool)
(declare-fun |zip[17:1]| ( Int  Int) Bool)
(declare-fun |unzip[12:1][15:1]| ( Int  Int  Int) Bool)
(declare-fun |unzip[12:0]| ( Int) Bool)
(assert (not (exists ((x0 Int)) (|fail_21[23:0]| x0))))
(assert (forall ((x0 Int)(x2 Int)) (=> (and (|zip[17:1]| 0 x2) (not (= x2 0))) (|fail_21[23:0]| x0))))
(assert (forall ((x1 Int)(x2 Int)(x0 Int)) (=> (|unzip[12:1][15:1]| x0 x1 x2) (|zip[17:1]| x1 x2))))
(assert (forall ((x2 Int)(x0 Int)(x1 Int)) (=> (and (|unzip[12:0]| x2) (and (= x0 0) (and (= x1 0) (= x2 0)))) (|unzip[12:1][15:1]| x2 x0 x1))))
(assert (forall ((x0 Int)) (|unzip[12:0]| x0)))
(check-sat)
(get-model)
(exit)
